
&CONTROL
 anthro_dir = './input_data/%%BB%%'
 wrf_dir = './'
 src_file_prefix = 'v432_'
 domains = 4
 src_file_suffix = '_2010_%%AA%%_IPCC_2G.0.1x0.1.nc' 
 src_names = 
 		'PM10(1)'

 
 sub_categories  = 'emi_pm10',

 cat_var_prefix  = ' '
 serial_output   = .false.
 start_output_time = '2015-07-10_00:00:00'
 stop_output_time = '2015-07-14_00:00:00'
 data_yrs_offset = +0
 emissions_zdim_stag = 1
 emis_map = 'PM10_ANT_NEU(a)->PM10(emi_pm10)',

/
